281 5
10 10 10 10 10 

0 0 0 0 0 0 1 2 
0 0 0 0 0 0 4 3 4 11 12 
10 0 0 3 0 0 4 10 9 7 5 
9 0 0 3 0 0 3 8 7 5 
4 0 0 9 0 0 1 6 
7 0 0 7 0 0 1 13 
9 0 0 8 0 0 1 13 
1 0 0 7 0 0 1 13 
6 0 0 9 0 0 1 13 
5 0 0 9 0 0 1 13 
8 0 0 10 0 0 1 13 
2 0 0 10 0 0 1 13 
0 0 0 0 0 0 4 14 46 78 110 
0 0 0 0 0 0 6 15 16 17 18 19 35 
2 0 4 5 3 0 5 33 22 21 20 172 
6 0 8 9 5 0 5 33 28 26 21 20 
9 0 8 8 4 0 3 26 21 20 
7 0 7 4 9 0 3 30 22 20 
10 0 8 6 10 0 5 34 32 30 27 22 
6 0 5 8 4 0 3 27 24 23 
6 0 8 9 10 0 2 30 25 
2 0 6 7 7 0 2 28 26 
2 0 7 7 10 0 2 32 29 
4 0 10 10 7 0 2 32 29 
6 0 10 7 10 0 2 32 29 
5 0 7 10 9 0 1 29 
5 0 10 9 4 0 1 29 
2 0 4 5 9 0 1 29 
5 0 6 7 10 0 6 44 43 42 39 38 31 
3 0 8 8 10 0 2 42 31 
5 0 6 10 5 0 2 40 36 
6 0 4 7 6 0 3 43 42 40 
10 0 9 10 6 0 2 42 41 
1 0 9 9 9 0 2 43 40 
9 0 6 6 6 0 2 44 41 
6 0 6 6 9 0 1 37 
4 0 6 8 8 0 1 41 
10 0 10 8 6 0 1 40 
4 0 8 7 6 0 1 40 
7 0 10 6 10 0 1 45 
6 0 10 6 10 0 1 45 
10 0 10 5 6 0 1 45 
1 0 8 10 8 0 1 45 
2 0 7 8 9 0 1 45 
0 0 0 0 0 0 1 270 
0 0 0 0 0 0 6 47 48 49 50 51 76 
6 0 7 3 4 0 5 58 55 54 53 52 
2 0 9 6 7 0 5 75 56 55 54 52 
6 0 8 7 9 0 4 62 55 53 52 
9 0 7 6 6 0 4 58 55 54 52 
10 0 8 9 6 0 2 74 53 
1 0 9 10 10 0 3 64 61 57 
7 0 3 7 4 0 3 73 60 56 
6 0 10 7 7 0 6 72 71 70 67 64 62 
7 0 6 7 7 0 2 64 59 
6 0 9 10 9 0 2 59 130 
1 0 8 10 10 0 1 59 
8 0 10 10 5 0 1 59 
7 0 9 7 10 0 5 72 71 70 67 63 
4 0 4 6 7 0 5 72 71 70 69 63 
1 0 4 10 7 0 5 73 71 70 69 65 
9 0 10 9 8 0 2 73 63 
8 0 6 5 6 0 1 65 
3 0 10 9 5 0 2 73 69 
3 0 7 8 6 0 1 66 
4 0 6 6 10 0 1 68 
9 0 7 8 10 0 1 69 
4 0 7 8 10 0 1 77 
1 0 7 2 7 0 1 77 
2 0 8 10 6 0 1 77 
7 0 5 6 10 0 1 77 
5 0 9 10 7 0 1 77 
9 0 8 8 7 0 1 77 
3 0 9 9 8 0 1 77 
5 0 10 7 8 0 1 77 
9 0 5 5 9 0 1 77 
0 0 0 0 0 0 1 270 
0 0 0 0 0 0 7 79 80 81 83 88 107 108 
7 3 6 0 0 6 4 103 86 84 82 
5 8 4 0 0 6 7 104 103 102 101 100 85 231 
4 10 5 0 0 10 4 105 104 92 85 
5 4 9 0 0 5 3 101 95 85 
4 9 9 0 0 5 5 106 104 97 95 86 
3 5 8 0 0 7 3 98 89 87 
3 8 5 0 0 5 2 98 87 
10 8 5 0 0 10 4 101 100 98 90 
10 8 8 0 0 10 3 99 94 90 
5 9 10 0 0 5 2 103 89 
4 8 5 0 0 10 2 102 94 
8 7 9 0 0 10 1 91 
4 10 3 0 0 7 1 93 
6 5 10 0 0 4 1 93 
2 10 10 0 0 10 1 96 
7 8 10 0 0 10 1 97 
5 8 5 0 0 8 1 100 
7 4 10 0 0 9 1 109 
3 10 8 0 0 6 1 109 
3 8 10 0 0 6 1 109 
1 8 10 0 0 7 1 109 
5 8 10 0 0 6 1 109 
7 7 9 0 0 10 1 109 
4 6 7 0 0 5 1 109 
9 8 6 0 0 10 1 109 
9 4 10 0 0 7 1 109 
9 10 7 0 0 10 1 109 
5 9 4 0 0 9 1 109 
6 7 7 0 0 6 1 109 
3 8 6 0 0 6 1 109 
0 0 0 0 0 0 1 270 
0 0 0 0 0 0 5 111 112 113 115 120 
7 2 0 0 0 0 3 119 117 116 
4 8 0 0 0 0 2 117 116 
8 7 0 0 0 0 1 114 
6 8 0 0 0 0 2 118 196 
7 9 0 0 0 0 1 116 
2 6 0 0 0 0 1 121 
2 9 0 0 0 0 1 121 
1 7 0 0 0 0 1 121 
5 9 0 0 0 0 1 121 
8 10 0 0 0 0 1 121 
0 0 0 0 0 0 5 122 134 156 178 200 
0 0 0 0 0 0 5 123 124 125 126 128 
9 0 0 0 2 0 4 132 131 130 129 
3 0 0 0 8 0 2 132 127 
8 0 0 0 5 0 4 132 131 129 261 
1 0 0 0 10 0 1 127 
1 0 0 0 6 0 2 130 129 
8 0 0 0 10 0 1 131 
2 0 0 0 6 0 1 133 
2 0 0 0 9 0 1 133 
10 0 0 0 9 0 1 133 
5 0 0 0 10 0 1 133 
0 0 0 0 0 0 4 222 234 246 258 
0 0 0 0 0 0 6 135 137 138 139 142 146 
2 1 3 0 0 0 2 143 136 
1 6 8 0 0 0 4 154 147 144 140 
10 6 9 0 0 0 3 153 147 141 
9 10 10 0 0 0 3 145 144 143 
1 7 10 0 0 0 2 143 140 
3 9 10 0 0 0 5 152 150 148 145 251 
10 8 8 0 0 0 4 154 151 150 144 
2 8 9 0 0 0 4 151 150 147 144 
3 7 10 0 0 0 3 150 149 147 
3 9 5 0 0 0 3 152 149 148 
2 9 6 0 0 0 3 153 151 149 
4 6 3 0 0 0 3 154 149 148 
9 7 5 0 0 0 1 148 
2 5 10 0 0 0 1 155 
6 9 10 0 0 0 1 155 
2 10 6 0 0 0 1 155 
9 7 7 0 0 0 1 155 
5 9 6 0 0 0 1 155 
9 10 7 0 0 0 1 155 
1 7 8 0 0 0 1 155 
0 0 0 0 0 0 1 270 
0 0 0 0 0 0 6 157 158 159 161 162 165 
4 4 0 0 0 7 3 170 164 160 
6 6 0 0 0 7 5 176 175 169 164 163 
5 6 0 0 0 10 4 175 169 164 163 
8 10 0 0 0 7 4 176 175 167 163 
9 9 0 0 0 7 3 175 167 163 
3 9 0 0 0 9 2 175 164 
4 6 0 0 0 9 4 174 171 168 166 
7 10 0 0 0 1 4 174 171 167 166 
3 9 0 0 0 7 3 176 175 169 
10 9 0 0 0 4 1 172 
4 6 0 0 0 9 1 173 
6 9 0 0 0 10 1 173 
5 7 0 0 0 7 1 171 
3 9 0 0 0 10 1 172 
2 8 0 0 0 5 1 177 
5 10 0 0 0 5 2 177 255 
6 9 0 0 0 10 1 177 
1 6 0 0 0 8 1 177 
5 3 0 0 0 8 1 177 
9 5 0 0 0 10 1 177 
0 0 0 0 0 0 1 270 
0 0 0 0 0 0 9 179 182 185 193 194 195 196 197 198 
3 0 6 0 0 5 4 192 191 190 180 
4 0 4 0 0 7 2 188 181 
6 0 10 0 0 5 2 183 226 
1 0 10 0 0 10 1 184 
7 0 6 0 0 4 1 186 
7 0 6 0 0 10 1 187 
9 0 4 0 0 7 1 189 
9 0 10 0 0 6 1 199 
7 0 9 0 0 9 1 199 
9 0 8 0 0 10 1 199 
9 0 6 0 0 10 1 199 
10 0 10 0 0 8 1 199 
1 0 6 0 0 9 1 199 
4 0 10 0 0 4 1 199 
3 0 5 0 0 6 1 199 
7 0 6 0 0 7 1 199 
8 0 8 0 0 10 1 199 
6 0 10 0 0 8 1 199 
10 0 10 0 0 7 1 199 
10 0 6 0 0 8 1 199 
0 0 0 0 0 0 1 270 
0 0 0 0 0 0 7 201 202 203 204 205 206 211 
2 2 0 0 7 0 5 220 217 216 213 208 
1 10 0 0 5 0 4 218 217 216 207 
4 5 0 0 8 0 5 219 218 217 213 209 
4 10 0 0 5 0 4 218 216 213 208 
9 7 0 0 10 0 4 217 216 213 210 
3 6 0 0 9 0 5 219 218 217 216 214 
9 10 0 0 10 0 4 219 215 213 212 
1 10 0 0 8 0 2 209 242 
4 8 0 0 4 0 2 215 212 
6 10 0 0 8 0 2 215 212 
5 3 0 0 4 0 2 215 212 
5 10 0 0 9 0 1 214 
5 7 0 0 6 0 1 214 
8 6 0 0 10 0 1 221 
3 7 0 0 9 0 1 221 
2 8 0 0 10 0 1 221 
10 7 0 0 6 0 1 221 
10 7 0 0 7 0 1 221 
3 10 0 0 7 0 1 221 
2 7 0 0 8 0 1 221 
0 0 0 0 0 0 1 270 
0 0 0 0 0 0 5 223 224 227 231 232 
6 0 0 0 3 0 2 229 225 
5 0 0 0 5 0 2 229 226 
4 0 0 0 8 0 1 230 
4 0 0 0 9 0 2 228 268 
10 0 0 0 10 0 1 228 
9 0 0 0 7 0 1 233 
7 0 0 0 10 0 1 233 
10 0 0 0 10 0 1 233 
6 0 0 0 9 0 1 233 
7 0 0 0 4 0 1 233 
0 0 0 0 0 0 1 270 
0 0 0 0 0 0 7 235 236 238 239 240 243 244 
8 0 0 0 3 0 2 242 237 
3 0 0 0 10 0 1 237 
6 0 0 0 8 0 1 241 
3 0 0 0 9 0 2 242 259 
7 0 0 0 5 0 1 241 
6 0 0 0 6 0 1 241 
7 0 0 0 9 0 1 245 
1 0 0 0 10 0 1 245 
6 0 0 0 7 0 1 245 
5 0 0 0 8 0 1 245 
0 0 0 0 0 0 1 270 
0 0 0 0 0 0 4 247 248 250 252 
8 4 0 0 0 0 2 256 251 
6 5 0 0 0 0 1 249 
6 10 0 0 0 0 4 256 255 254 253 
3 9 0 0 0 0 1 251 
2 7 0 0 0 0 3 255 254 253 
7 8 0 0 0 0 3 256 254 253 
8 9 0 0 0 0 2 257 264 
10 8 0 0 0 0 1 257 
1 5 0 0 0 0 1 257 
4 10 0 0 0 0 1 257 
0 0 0 0 0 0 1 270 
0 0 0 0 0 0 6 259 262 263 264 265 266 
7 0 0 4 0 0 2 261 260 
3 0 0 7 0 0 2 268 267 
9 0 0 7 0 0 2 268 267 
2 0 0 10 0 0 2 268 267 
6 0 0 4 0 0 2 268 267 
8 0 0 10 0 0 1 267 
1 0 0 8 0 0 1 267 
5 0 0 8 0 0 1 267 
4 0 0 10 0 0 1 269 
7 0 0 7 0 0 1 269 
0 0 0 0 0 0 1 270 
0 0 0 0 0 0 4 271 273 274 280 
8 6 0 0 0 0 2 279 272 
5 3 0 0 0 0 3 278 276 275 
1 10 0 0 0 0 3 277 276 275 
9 7 0 0 0 0 2 277 275 
4 9 0 0 0 0 1 281 
3 9 0 0 0 0 1 281 
10 9 0 0 0 0 1 281 
5 5 0 0 0 0 1 281 
4 10 0 0 0 0 1 281 
7 7 0 0 0 0 1 281 
0 0 0 0 0 0 0 
